[runlim] version:		1.10
[runlim] time limit:		311040000 seconds
[runlim] real time limit:	311040000 seconds
[runlim] space limit:		30000 MB
[runlim] argv[0]:		/home/hvanh28/Minizinc/MiniZincIDE-2.8.6-bundle-linux-x86_64/bin/minizinc
[runlim] argv[1]:		--solver
[runlim] argv[2]:		Chuffed
[runlim] argv[3]:		--time-limit
[runlim] argv[4]:		1800000
[runlim] argv[5]:		--output-to-file
[runlim] argv[6]:		4/U-662_bus-1.log
[runlim] argv[7]:		--output-time
[runlim] argv[8]:		--statistics
[runlim] argv[9]:		CP-MZ-Chuffed.mzn
[runlim] argv[10]:		U-662_bus.dzn
[runlim] start:			Thu Oct 10 10:38:13 2024
[runlim] main pid:		43760
[runlim] log captured:
% Generated FlatZinc statistics:
%%%mzn-stat: paths=0
%%%mzn-stat: flatIntVars=2475
%%%mzn-stat: flatIntConstraints=2719
%%%mzn-stat: method="maximize"
%%%mzn-stat: flatTime=0.184353
%%%mzn-stat-end
WARNING: the --time-out flag has recently been changed.The time-out is now provided in milliseconds instead of seconds
[runlim] sample:		10.0 time, 10.8 real, 654.8 MB
[runlim] sample:		20.0 time, 20.8 real, 664.9 MB
[runlim] sample:		30.0 time, 30.8 real, 672.1 MB
[runlim] sample:		40.0 time, 40.8 real, 682.6 MB
[runlim] sample:		50.0 time, 50.8 real, 692.5 MB
[runlim] sample:		60.0 time, 60.8 real, 698.2 MB
[runlim] sample:		70.0 time, 70.8 real, 708.4 MB
[runlim] sample:		80.0 time, 80.8 real, 711.7 MB
[runlim] sample:		90.0 time, 90.8 real, 718.9 MB
[runlim] sample:		100.0 time, 100.8 real, 724.3 MB
[runlim] sample:		110.0 time, 110.8 real, 732.7 MB
[runlim] sample:		120.0 time, 120.8 real, 738.2 MB
[runlim] sample:		130.0 time, 130.8 real, 747.8 MB
[runlim] sample:		140.0 time, 140.8 real, 756.0 MB
[runlim] sample:		150.0 time, 150.8 real, 761.4 MB
[runlim] sample:		160.0 time, 160.8 real, 765.6 MB
[runlim] sample:		170.0 time, 170.8 real, 771.5 MB
[runlim] sample:		180.0 time, 180.8 real, 776.4 MB
[runlim] sample:		190.0 time, 190.8 real, 786.1 MB
[runlim] sample:		200.0 time, 200.8 real, 792.0 MB
[runlim] sample:		210.0 time, 210.8 real, 798.3 MB
[runlim] sample:		220.0 time, 220.8 real, 801.4 MB
[runlim] sample:		230.0 time, 230.8 real, 806.7 MB
[runlim] sample:		240.0 time, 240.8 real, 810.3 MB
[runlim] sample:		250.0 time, 250.8 real, 813.7 MB
[runlim] sample:		260.0 time, 260.8 real, 816.8 MB
[runlim] sample:		269.9 time, 270.8 real, 820.4 MB
[runlim] sample:		279.9 time, 280.8 real, 823.0 MB
[runlim] sample:		289.9 time, 290.8 real, 828.6 MB
[runlim] sample:		300.0 time, 300.8 real, 835.1 MB
[runlim] sample:		309.9 time, 310.8 real, 841.2 MB
[runlim] sample:		320.0 time, 320.8 real, 845.3 MB
[runlim] sample:		330.0 time, 330.8 real, 851.7 MB
[runlim] sample:		340.0 time, 340.8 real, 855.8 MB
[runlim] sample:		349.9 time, 350.8 real, 863.3 MB
[runlim] sample:		360.0 time, 360.8 real, 866.4 MB
[runlim] sample:		369.9 time, 370.8 real, 874.1 MB
[runlim] sample:		379.9 time, 380.8 real, 879.2 MB
[runlim] sample:		389.9 time, 390.8 real, 881.5 MB
[runlim] sample:		399.9 time, 400.8 real, 885.7 MB
[runlim] sample:		409.9 time, 410.8 real, 890.0 MB
[runlim] sample:		419.9 time, 420.8 real, 899.9 MB
[runlim] sample:		429.9 time, 430.8 real, 902.3 MB
[runlim] sample:		439.9 time, 440.8 real, 906.4 MB
[runlim] sample:		449.9 time, 450.8 real, 909.7 MB
[runlim] sample:		459.9 time, 460.8 real, 912.3 MB
[runlim] sample:		469.9 time, 470.8 real, 916.6 MB
[runlim] sample:		479.9 time, 480.8 real, 922.9 MB
[runlim] sample:		489.9 time, 490.8 real, 926.6 MB
[runlim] sample:		499.9 time, 500.8 real, 927.8 MB
[runlim] sample:		509.9 time, 510.8 real, 929.1 MB
[runlim] sample:		520.0 time, 520.8 real, 930.7 MB
[runlim] sample:		529.9 time, 530.8 real, 933.8 MB
[runlim] sample:		539.9 time, 540.8 real, 936.9 MB
[runlim] sample:		550.0 time, 550.8 real, 939.2 MB
[runlim] sample:		559.9 time, 560.8 real, 941.0 MB
[runlim] sample:		569.9 time, 570.8 real, 948.3 MB
[runlim] sample:		579.9 time, 580.8 real, 952.7 MB
[runlim] sample:		589.9 time, 590.8 real, 953.7 MB
[runlim] sample:		599.9 time, 600.8 real, 955.8 MB
[runlim] sample:		609.9 time, 610.8 real, 961.7 MB
[runlim] sample:		619.9 time, 620.8 real, 962.2 MB
[runlim] sample:		629.9 time, 630.8 real, 963.3 MB
[runlim] sample:		639.9 time, 640.8 real, 964.3 MB
[runlim] sample:		649.9 time, 650.8 real, 968.1 MB
[runlim] sample:		659.9 time, 660.8 real, 970.7 MB
[runlim] sample:		669.9 time, 670.8 real, 973.3 MB
[runlim] sample:		679.9 time, 680.8 real, 975.1 MB
[runlim] sample:		689.9 time, 690.8 real, 978.6 MB
[runlim] sample:		699.9 time, 700.8 real, 981.6 MB
[runlim] sample:		709.9 time, 710.8 real, 984.9 MB
[runlim] sample:		719.9 time, 720.8 real, 986.5 MB
[runlim] sample:		729.9 time, 730.8 real, 988.5 MB
[runlim] sample:		739.9 time, 740.8 real, 990.1 MB
[runlim] sample:		749.9 time, 750.8 real, 991.9 MB
[runlim] sample:		759.9 time, 760.8 real, 992.1 MB
[runlim] sample:		769.9 time, 770.8 real, 992.9 MB
[runlim] sample:		779.9 time, 780.8 real, 994.2 MB
[runlim] sample:		789.9 time, 790.8 real, 995.5 MB
[runlim] sample:		799.9 time, 800.8 real, 997.5 MB
[runlim] sample:		809.9 time, 810.8 real, 999.1 MB
[runlim] sample:		819.9 time, 820.8 real, 1003.1 MB
[runlim] sample:		829.9 time, 830.8 real, 1004.4 MB
[runlim] sample:		839.9 time, 840.8 real, 1006.5 MB
[runlim] sample:		849.9 time, 850.8 real, 1008.0 MB
[runlim] sample:		859.9 time, 860.8 real, 1009.6 MB
[runlim] sample:		869.9 time, 870.8 real, 1011.9 MB
[runlim] sample:		879.9 time, 880.8 real, 1015.2 MB
[runlim] sample:		889.9 time, 890.8 real, 1016.7 MB
[runlim] sample:		899.9 time, 900.8 real, 1017.5 MB
[runlim] sample:		909.9 time, 910.8 real, 1018.0 MB
[runlim] sample:		919.9 time, 920.8 real, 1019.3 MB
[runlim] sample:		929.9 time, 930.8 real, 1019.3 MB
[runlim] sample:		939.9 time, 940.8 real, 1019.3 MB
[runlim] sample:		949.9 time, 950.8 real, 1020.0 MB
[runlim] sample:		959.9 time, 960.8 real, 1020.5 MB
[runlim] sample:		969.9 time, 970.8 real, 1022.3 MB
[runlim] sample:		979.9 time, 980.8 real, 1024.3 MB
[runlim] sample:		989.9 time, 990.8 real, 1029.2 MB
[runlim] sample:		999.9 time, 1000.8 real, 1030.2 MB
[runlim] sample:		1009.9 time, 1010.8 real, 1033.3 MB
[runlim] sample:		1019.9 time, 1020.8 real, 1037.1 MB
[runlim] sample:		1029.9 time, 1030.8 real, 1039.4 MB
[runlim] sample:		1039.9 time, 1040.8 real, 1041.1 MB
[runlim] sample:		1049.9 time, 1050.8 real, 1044.4 MB
[runlim] sample:		1059.9 time, 1060.8 real, 1049.0 MB
[runlim] sample:		1069.9 time, 1070.8 real, 1051.5 MB
[runlim] sample:		1079.9 time, 1080.8 real, 1054.1 MB
[runlim] sample:		1089.9 time, 1090.8 real, 1056.8 MB
[runlim] sample:		1099.9 time, 1100.8 real, 1058.1 MB
[runlim] sample:		1109.9 time, 1110.8 real, 1059.9 MB
[runlim] sample:		1119.9 time, 1120.8 real, 1059.9 MB
[runlim] sample:		1129.9 time, 1130.8 real, 1059.9 MB
[runlim] sample:		1139.9 time, 1140.8 real, 1059.9 MB
[runlim] sample:		1149.9 time, 1150.8 real, 1059.9 MB
[runlim] sample:		1159.9 time, 1160.8 real, 1059.9 MB
[runlim] sample:		1169.9 time, 1170.8 real, 1059.9 MB
[runlim] sample:		1179.9 time, 1180.8 real, 1059.9 MB
[runlim] sample:		1189.9 time, 1190.8 real, 1059.9 MB
[runlim] sample:		1199.9 time, 1200.8 real, 1059.9 MB
[runlim] sample:		1209.9 time, 1210.8 real, 1060.8 MB
[runlim] sample:		1219.9 time, 1220.8 real, 1060.8 MB
[runlim] sample:		1229.9 time, 1230.8 real, 1060.8 MB
[runlim] sample:		1239.9 time, 1240.8 real, 1060.8 MB
[runlim] sample:		1249.9 time, 1250.8 real, 1060.8 MB
[runlim] sample:		1259.9 time, 1260.8 real, 1060.8 MB
[runlim] sample:		1269.9 time, 1270.8 real, 1060.8 MB
[runlim] sample:		1279.9 time, 1280.8 real, 1060.8 MB
[runlim] sample:		1289.9 time, 1290.8 real, 1060.8 MB
[runlim] sample:		1299.9 time, 1300.8 real, 1060.8 MB
[runlim] sample:		1309.9 time, 1310.8 real, 1060.8 MB
[runlim] sample:		1319.9 time, 1320.8 real, 1060.8 MB
[runlim] sample:		1329.8 time, 1330.8 real, 1060.8 MB
[runlim] sample:		1339.8 time, 1340.8 real, 1060.8 MB
[runlim] sample:		1349.8 time, 1350.8 real, 1060.8 MB
[runlim] sample:		1359.8 time, 1360.8 real, 1060.8 MB
[runlim] sample:		1369.8 time, 1370.8 real, 1060.8 MB
[runlim] sample:		1379.8 time, 1380.8 real, 1060.8 MB
[runlim] sample:		1389.8 time, 1390.8 real, 1060.8 MB
[runlim] sample:		1399.8 time, 1400.8 real, 1060.8 MB
[runlim] sample:		1409.8 time, 1410.8 real, 1060.8 MB
[runlim] sample:		1419.8 time, 1420.8 real, 1060.8 MB
[runlim] sample:		1429.8 time, 1430.8 real, 1060.8 MB
[runlim] sample:		1439.8 time, 1440.8 real, 1060.8 MB
[runlim] sample:		1449.8 time, 1450.8 real, 1060.8 MB
[runlim] sample:		1459.8 time, 1460.8 real, 1060.8 MB
[runlim] sample:		1469.8 time, 1470.8 real, 1060.8 MB
[runlim] sample:		1479.8 time, 1480.8 real, 1060.8 MB
[runlim] sample:		1489.8 time, 1490.8 real, 1060.8 MB
[runlim] sample:		1499.8 time, 1500.8 real, 1060.8 MB
[runlim] sample:		1509.8 time, 1510.8 real, 1060.8 MB
[runlim] sample:		1519.8 time, 1520.8 real, 1060.8 MB
[runlim] sample:		1529.8 time, 1530.8 real, 1060.8 MB
[runlim] sample:		1539.8 time, 1540.8 real, 1060.8 MB
[runlim] sample:		1549.8 time, 1550.8 real, 1060.8 MB
[runlim] sample:		1559.8 time, 1560.8 real, 1060.8 MB
[runlim] sample:		1569.8 time, 1570.8 real, 1060.8 MB
[runlim] sample:		1579.8 time, 1580.8 real, 1060.8 MB
[runlim] sample:		1589.8 time, 1590.8 real, 1060.8 MB
[runlim] sample:		1599.8 time, 1600.8 real, 1060.8 MB
[runlim] sample:		1609.8 time, 1610.8 real, 1060.8 MB
[runlim] sample:		1619.8 time, 1620.8 real, 1060.8 MB
[runlim] sample:		1629.8 time, 1630.8 real, 1060.8 MB
[runlim] sample:		1639.8 time, 1640.8 real, 1060.8 MB
[runlim] sample:		1649.8 time, 1650.8 real, 1060.8 MB
[runlim] sample:		1659.8 time, 1660.8 real, 1060.8 MB
[runlim] sample:		1669.8 time, 1670.8 real, 1060.8 MB
[runlim] sample:		1679.8 time, 1680.8 real, 1060.8 MB
[runlim] sample:		1689.8 time, 1690.8 real, 1060.8 MB
[runlim] sample:		1699.8 time, 1700.8 real, 1060.8 MB
[runlim] sample:		1709.8 time, 1710.8 real, 1060.8 MB
[runlim] sample:		1719.8 time, 1720.8 real, 1060.8 MB
[runlim] sample:		1729.8 time, 1730.8 real, 1060.8 MB
[runlim] sample:		1739.8 time, 1740.8 real, 1060.8 MB
[runlim] sample:		1749.8 time, 1750.8 real, 1060.8 MB
[runlim] sample:		1759.8 time, 1760.8 real, 1060.8 MB
[runlim] sample:		1769.8 time, 1770.8 real, 1060.8 MB
[runlim] sample:		1779.8 time, 1780.8 real, 1060.8 MB
[runlim] sample:		1789.8 time, 1790.8 real, 1060.8 MB
[runlim] sample:		1799.8 time, 1800.8 real, 1060.8 MB
%%%mzn-stat: nSolutions=0
%%%mzn-stat-end
[runlim] end:			Thu Oct 10 11:08:14 2024
[runlim] status:		ok
[runlim] result:		0
[runlim] children:		18009
[runlim] real:			1801.89 seconds
[runlim] time:			1800.92 seconds
[runlim] space:			1060.8 MB
[runlim] samples:		18011
